NAME : anjos-80-03.-256.tour
COMMENT : Length = -256
COMMENT : Found by LKH [Keld Helsgaun] Sun Apr 13 17:05:01 2025
TYPE : TOUR
DIMENSION : 80
TOUR_SECTION
1
9
51
14
7
67
76
80
77
25
23
55
11
73
16
58
20
24
70
39
35
13
36
71
38
69
28
12
79
59
41
8
74
40
65
68
18
21
56
45
49
37
54
29
57
63
52
61
66
33
42
50
44
17
22
30
32
48
27
72
5
64
75
53
3
34
43
46
47
2
10
60
62
26
31
6
4
78
19
15
-1
EOF
